c CNF file corresponding to a (partial) station packing problem.
p cnf 5986 229
1 2 3 4 5 6 7 8 9 10 11 12 13 14 0
-1 -2 0
-1 -3 0
-1 -4 0
-1 -5 0
-1 -6 0
-1 -7 0
-1 -8 0
-1 -9 0
-1 -10 0
-1 -11 0
-1 -12 0
-1 -13 0
-1 -14 0
-2 -3 0
-2 -4 0
-2 -5 0
-2 -6 0
-2 -7 0
-2 -8 0
-2 -9 0
-2 -10 0
-2 -11 0
-2 -12 0
-2 -13 0
-2 -14 0
-3 -4 0
-3 -5 0
-3 -6 0
-3 -7 0
-3 -8 0
-3 -9 0
-3 -10 0
-3 -11 0
-3 -12 0
-3 -13 0
-3 -14 0
-4 -5 0
-4 -6 0
-4 -7 0
-4 -8 0
-4 -9 0
-4 -10 0
-4 -11 0
-4 -12 0
-4 -13 0
-4 -14 0
-5 -6 0
-5 -7 0
-5 -8 0
-5 -9 0
-5 -10 0
-5 -11 0
-5 -12 0
-5 -13 0
-5 -14 0
-6 -7 0
-6 -8 0
-6 -9 0
-6 -10 0
-6 -11 0
-6 -12 0
-6 -13 0
-6 -14 0
-7 -8 0
-7 -9 0
-7 -10 0
-7 -11 0
-7 -12 0
-7 -13 0
-7 -14 0
-8 -9 0
-8 -10 0
-8 -11 0
-8 -12 0
-8 -13 0
-8 -14 0
-9 -10 0
-9 -11 0
-9 -12 0
-9 -13 0
-9 -14 0
-10 -11 0
-10 -12 0
-10 -13 0
-10 -14 0
-11 -12 0
-11 -13 0
-11 -14 0
-12 -13 0
-12 -14 0
-13 -14 0
5970 5971 5972 5973 5974 5975 5976 5977 5978 5979 5980 5981 5982 5983 5984 5985 5986 0
-5970 -5971 0
-5970 -5972 0
-5970 -5973 0
-5970 -5974 0
-5970 -5975 0
-5970 -5976 0
-5970 -5977 0
-5970 -5978 0
-5970 -5979 0
-5970 -5980 0
-5970 -5981 0
-5970 -5982 0
-5970 -5983 0
-5970 -5984 0
-5970 -5985 0
-5970 -5986 0
-5971 -5972 0
-5971 -5973 0
-5971 -5974 0
-5971 -5975 0
-5971 -5976 0
-5971 -5977 0
-5971 -5978 0
-5971 -5979 0
-5971 -5980 0
-5971 -5981 0
-5971 -5982 0
-5971 -5983 0
-5971 -5984 0
-5971 -5985 0
-5971 -5986 0
-5972 -5973 0
-5972 -5974 0
-5972 -5975 0
-5972 -5976 0
-5972 -5977 0
-5972 -5978 0
-5972 -5979 0
-5972 -5980 0
-5972 -5981 0
-5972 -5982 0
-5972 -5983 0
-5972 -5984 0
-5972 -5985 0
-5972 -5986 0
-5973 -5974 0
-5973 -5975 0
-5973 -5976 0
-5973 -5977 0
-5973 -5978 0
-5973 -5979 0
-5973 -5980 0
-5973 -5981 0
-5973 -5982 0
-5973 -5983 0
-5973 -5984 0
-5973 -5985 0
-5973 -5986 0
-5974 -5975 0
-5974 -5976 0
-5974 -5977 0
-5974 -5978 0
-5974 -5979 0
-5974 -5980 0
-5974 -5981 0
-5974 -5982 0
-5974 -5983 0
-5974 -5984 0
-5974 -5985 0
-5974 -5986 0
-5975 -5976 0
-5975 -5977 0
-5975 -5978 0
-5975 -5979 0
-5975 -5980 0
-5975 -5981 0
-5975 -5982 0
-5975 -5983 0
-5975 -5984 0
-5975 -5985 0
-5975 -5986 0
-5976 -5977 0
-5976 -5978 0
-5976 -5979 0
-5976 -5980 0
-5976 -5981 0
-5976 -5982 0
-5976 -5983 0
-5976 -5984 0
-5976 -5985 0
-5976 -5986 0
-5977 -5978 0
-5977 -5979 0
-5977 -5980 0
-5977 -5981 0
-5977 -5982 0
-5977 -5983 0
-5977 -5984 0
-5977 -5985 0
-5977 -5986 0
-5978 -5979 0
-5978 -5980 0
-5978 -5981 0
-5978 -5982 0
-5978 -5983 0
-5978 -5984 0
-5978 -5985 0
-5978 -5986 0
-5979 -5980 0
-5979 -5981 0
-5979 -5982 0
-5979 -5983 0
-5979 -5984 0
-5979 -5985 0
-5979 -5986 0
-5980 -5981 0
-5980 -5982 0
-5980 -5983 0
-5980 -5984 0
-5980 -5985 0
-5980 -5986 0
-5981 -5982 0
-5981 -5983 0
-5981 -5984 0
-5981 -5985 0
-5981 -5986 0
-5982 -5983 0
-5982 -5984 0
-5982 -5985 0
-5982 -5986 0
-5983 -5984 0
-5983 -5985 0
-5983 -5986 0
-5984 -5985 0
-5984 -5986 0
-5985 -5986 0
